\ This file has been generated by DOcplex
\ ENCODING=ISO-8859-1
\Problem name: random_problem.lp

Minimize
 obj: 63 x0 + 72 x1 + 9 x2 + 5 x3 + 14 x4 + 65 x5 + 67 x6 + 90 x7 + 95 x8
      + 63 x9 + 89 x10 + 46 x11 + 39 x12 + 34 x13 + 52 x14 + 44 x15 + 24 x16
      + 50 x17 + 92 x18 + 75 x19 + 48 x20 + 28 x21 + 82 x22 + 22 x23 + 69 x24
      + 13 x25 + 27 x26 + 89 x27
Subject To
 c0: x0 + x2 + x5 + x9 + x10 + x11 + x13 + x16 + x17 + x22 + x26 + x27 = 1
 c1: x3 + x4 + x10 + x11 + x12 + x20 + x24 = 1
 c2: x5 + x9 + x15 + x17 + x18 + x21 + x22 + x24 + x25 + x27 = 1
 c3: x0 + x8 + x21 + x22 + x24 + x25 = 1
 c4: x0 + x4 + x7 + x8 + x10 + x12 + x17 + x19 + x20 + x22 + x23 + x25 = 1
 c5: x1 + x4 + x7 + x10 + x13 + x20 + x22 + x25 + x26 = 1
 c6: x5 + x10 + x12 + x13 + x14 + x21 + x23 + x25 + x26 + x27 = 1
 c7: x0 + x1 + x6 + x8 + x9 + x10 + x11 + x12 + x13 + x16 + x17 + x20 + x23
     + x26 = 1
 c8: x1 + x2 + x7 + x8 + x12 + x13 + x16 + x18 + x21 + x22 + x23 = 1

Bounds
 0 <= x0 <= 1
 0 <= x1 <= 1
 0 <= x2 <= 1
 0 <= x3 <= 1
 0 <= x4 <= 1
 0 <= x5 <= 1
 0 <= x6 <= 1
 0 <= x7 <= 1
 0 <= x8 <= 1
 0 <= x9 <= 1
 0 <= x10 <= 1
 0 <= x11 <= 1
 0 <= x12 <= 1
 0 <= x13 <= 1
 0 <= x14 <= 1
 0 <= x15 <= 1
 0 <= x16 <= 1
 0 <= x17 <= 1
 0 <= x18 <= 1
 0 <= x19 <= 1
 0 <= x20 <= 1
 0 <= x21 <= 1
 0 <= x22 <= 1
 0 <= x23 <= 1
 0 <= x24 <= 1
 0 <= x25 <= 1
 0 <= x26 <= 1
 0 <= x27 <= 1

Binaries
 x0 x1 x2 x3 x4 x5 x6 x7 x8 x9 x10 x11 x12 x13 x14 x15 x16 x17 x18 x19 x20 x21
 x22 x23 x24 x25 x26 x27
End
